NAME: cuum770.tsp
TYPE: TSP
COMMENT: User-generated TSP file
DIMENSION: 770
EDGE_WEIGHT_TYPE: EUC_2D
NODE_COORD_SECTION
1 474.0 494.0
2 620.0 44.0
3 196.0 412.0
4 657.0 152.0
5 104.0 95.0
6 102.0 728.0
7 186.0 547.0
8 722.0 155.0
9 117.0 184.0
10 245.0 636.0
11 174.0 262.0
12 161.0 314.0
13 658.0 15.0
14 719.0 173.0
15 273.0 499.0
16 635.0 291.0
17 541.0 233.0
18 574.0 23.0
19 345.0 254.0
20 257.0 266.0
21 250.0 566.0
22 483.0 94.0
23 580.0 549.0
24 525.0 588.0
25 348.0 637.0
26 89.0 605.0
27 738.0 722.0
28 570.0 524.0
29 201.0 494.0
30 311.0 621.0
31 531.0 250.0
32 404.0 754.0
33 356.0 2.0
34 16.0 209.0
35 465.0 426.0
36 761.0 28.0
37 15.0 493.0
38 140.0 682.0
39 86.0 729.0
40 292.0 7.0
41 517.0 479.0
42 577.0 281.0
43 471.0 739.0
44 462.0 423.0
45 234.0 682.0
46 370.0 508.0
47 527.0 590.0
48 629.0 84.0
49 152.0 364.0
50 17.0 344.0
51 641.0 47.0
52 259.0 89.0
53 382.0 385.0
54 499.0 419.0
55 658.0 765.0
56 9.0 232.0
57 377.0 588.0
58 108.0 671.0
59 409.0 412.0
60 608.0 689.0
61 711.0 29.0
62 732.0 244.0
63 139.0 599.0
64 764.0 643.0
65 122.0 585.0
66 423.0 124.0
67 10.0 261.0
68 101.0 143.0
69 190.0 199.0
70 218.0 664.0
71 173.0 446.0
72 557.0 567.0
73 739.0 396.0
74 153.0 580.0
75 34.0 114.0
76 440.0 747.0
77 63.0 25.0
78 381.0 199.0
79 691.0 421.0
80 321.0 129.0
81 675.0 100.0
82 373.0 489.0
83 643.0 182.0
84 668.0 188.0
85 704.0 311.0
86 162.0 425.0
87 296.0 22.0
88 334.0 522.0
89 71.0 465.0
90 761.0 365.0
91 668.0 34.0
92 265.0 507.0
93 249.0 34.0
94 651.0 76.0
95 540.0 580.0
96 491.0 264.0
97 483.0 46.0
98 29.0 19.0
99 20.0 665.0
100 557.0 113.0
101 657.0 522.0
102 493.0 163.0
103 185.0 573.0
104 445.0 286.0
105 706.0 445.0
106 586.0 40.0
107 124.0 747.0
108 555.0 570.0
109 219.0 623.0
110 37.0 373.0
111 112.0 106.0
112 240.0 419.0
113 615.0 248.0
114 662.0 683.0
115 531.0 573.0
116 446.0 650.0
117 557.0 704.0
118 192.0 281.0
119 16.0 88.0
120 435.0 523.0
121 289.0 248.0
122 236.0 504.0
123 158.0 329.0
124 522.0 429.0
125 335.0 683.0
126 274.0 253.0
127 248.0 48.0
128 578.0 715.0
129 495.0 614.0
130 236.0 242.0
131 262.0 80.0
132 169.0 138.0
133 487.0 438.0
134 90.0 408.0
135 543.0 356.0
136 452.0 434.0
137 376.0 165.0
138 187.0 388.0
139 591.0 167.0
140 347.0 166.0
141 395.0 743.0
142 390.0 215.0
143 735.0 317.0
144 380.0 541.0
145 372.0 225.0
146 724.0 541.0
147 711.0 316.0
148 539.0 609.0
149 463.0 737.0
150 678.0 742.0
151 532.0 627.0
152 220.0 405.0
153 652.0 4.0
154 353.0 182.0
155 427.0 283.0
156 515.0 706.0
157 422.0 428.0
158 655.0 342.0
159 540.0 191.0
160 578.0 426.0
161 108.0 337.0
162 198.0 5.0
163 198.0 427.0
164 95.0 491.0
165 564.0 527.0
166 327.0 191.0
167 456.0 312.0
168 612.0 95.0
169 371.0 598.0
170 707.0 239.0
171 416.0 65.0
172 41.0 535.0
173 196.0 437.0
174 301.0 37.0
175 175.0 694.0
176 712.0 202.0
177 386.0 647.0
178 80.0 432.0
179 298.0 155.0
180 316.0 592.0
181 172.0 757.0
182 69.0 513.0
183 61.0 462.0
184 484.0 97.0
185 178.0 387.0
186 759.0 613.0
187 41.0 349.0
188 519.0 346.0
189 80.0 729.0
190 292.0 88.0
191 577.0 482.0
192 675.0 516.0
193 533.0 153.0
194 639.0 670.0
195 297.0 220.0
196 427.0 418.0
197 670.0 532.0
198 141.0 178.0
199 557.0 267.0
200 220.0 139.0
201 745.0 373.0
202 428.0 246.0
203 244.0 182.0
204 385.0 746.0
205 284.0 56.0
206 572.0 264.0
207 166.0 479.0
208 185.0 159.0
209 344.0 420.0
210 503.0 754.0
211 254.0 608.0
212 433.0 527.0
213 608.0 170.0
214 663.0 604.0
215 216.0 256.0
216 486.0 340.0
217 564.0 440.0
218 100.0 172.0
219 5.0 175.0
220 93.0 286.0
221 610.0 675.0
222 265.0 681.0
223 616.0 447.0
224 423.0 104.0
225 639.0 426.0
226 640.0 293.0
227 437.0 289.0
228 30.0 302.0
229 532.0 39.0
230 201.0 695.0
231 312.0 36.0
232 50.0 108.0
233 368.0 753.0
234 280.0 187.0
235 452.0 751.0
236 524.0 314.0
237 147.0 293.0
238 12.0 154.0
239 414.0 505.0
240 350.0 93.0
241 553.0 684.0
242 491.0 1.0
243 69.0 174.0
244 766.0 76.0
245 165.0 537.0
246 346.0 198.0
247 16.0 45.0
248 190.0 262.0
249 106.0 557.0
250 22.0 105.0
251 736.0 324.0
252 308.0 705.0
253 370.0 197.0
254 67.0 652.0
255 594.0 291.0
256 513.0 661.0
257 287.0 538.0
258 730.0 588.0
259 287.0 275.0
260 169.0 161.0
261 669.0 612.0
262 657.0 282.0
263 468.0 15.0
264 373.0 538.0
265 39.0 248.0
266 107.0 177.0
267 379.0 663.0
268 476.0 76.0
269 25.0 417.0
270 755.0 350.0
271 716.0 248.0
272 39.0 575.0
273 353.0 105.0
274 366.0 110.0
275 64.0 16.0
276 687.0 607.0
277 527.0 532.0
278 442.0 301.0
279 108.0 462.0
280 434.0 627.0
281 730.0 603.0
282 270.0 188.0
283 155.0 718.0
284 81.0 459.0
285 120.0 711.0
286 177.0 126.0
287 564.0 517.0
288 330.0 23.0
289 543.0 544.0
290 4.0 686.0
291 708.0 464.0
292 731.0 339.0
293 592.0 597.0
294 297.0 491.0
295 696.0 74.0
296 73.0 665.0
297 563.0 518.0
298 732.0 638.0
299 91.0 315.0
300 643.0 410.0
301 227.0 509.0
302 41.0 722.0
303 489.0 430.0
304 419.0 478.0
305 511.0 241.0
306 504.0 73.0
307 400.0 255.0
308 187.0 182.0
309 140.0 283.0
310 214.0 200.0
311 202.0 109.0
312 96.0 125.0
313 416.0 220.0
314 432.0 518.0
315 600.0 116.0
316 715.0 627.0
317 372.0 539.0
318 360.0 631.0
319 326.0 372.0
320 457.0 96.0
321 761.0 218.0
322 255.0 456.0
323 53.0 3.0
324 149.0 757.0
325 689.0 5.0
326 498.0 504.0
327 763.0 575.0
328 455.0 650.0
329 409.0 198.0
330 763.0 558.0
331 476.0 717.0
332 508.0 488.0
333 715.0 733.0
334 695.0 157.0
335 549.0 320.0
336 406.0 507.0
337 24.0 462.0
338 193.0 144.0
339 1.0 49.0
340 243.0 144.0
341 630.0 436.0
342 244.0 162.0
343 600.0 479.0
344 294.0 446.0
345 763.0 465.0
346 96.0 696.0
347 258.0 523.0
348 499.0 363.0
349 763.0 700.0
350 426.0 409.0
351 756.0 683.0
352 82.0 464.0
353 402.0 403.0
354 46.0 452.0
355 27.0 89.0
356 82.0 569.0
357 307.0 492.0
358 485.0 671.0
359 700.0 286.0
360 704.0 241.0
361 323.0 355.0
362 142.0 686.0
363 235.0 293.0
364 697.0 19.0
365 307.0 413.0
366 580.0 40.0
367 452.0 639.0
368 408.0 642.0
369 366.0 702.0
370 368.0 377.0
371 353.0 253.0
372 615.0 97.0
373 35.0 89.0
374 681.0 144.0
375 100.0 233.0
376 495.0 329.0
377 615.0 497.0
378 687.0 744.0
379 196.0 462.0
380 122.0 558.0
381 693.0 419.0
382 403.0 631.0
383 561.0 397.0
384 485.0 163.0
385 364.0 110.0
386 467.0 525.0
387 431.0 644.0
388 490.0 580.0
389 498.0 152.0
390 367.0 256.0
391 358.0 420.0
392 204.0 580.0
393 313.0 277.0
394 420.0 432.0
395 597.0 113.0
396 748.0 134.0
397 422.0 121.0
398 218.0 43.0
399 146.0 618.0
400 287.0 460.0
401 550.0 444.0
402 229.0 238.0
403 575.0 274.0
404 222.0 446.0
405 337.0 72.0
406 92.0 97.0
407 563.0 306.0
408 372.0 615.0
409 51.0 684.0
410 433.0 230.0
411 330.0 703.0
412 427.0 576.0
413 80.0 621.0
414 424.0 34.0
415 604.0 25.0
416 403.0 244.0
417 245.0 570.0
418 585.0 622.0
419 575.0 30.0
420 231.0 436.0
421 770.0 614.0
422 172.0 289.0
423 26.0 104.0
424 445.0 613.0
425 125.0 113.0
426 38.0 326.0
427 201.0 118.0
428 662.0 512.0
429 716.0 647.0
430 505.0 340.0
431 160.0 747.0
432 24.0 504.0
433 524.0 337.0
434 759.0 572.0
435 267.0 280.0
436 176.0 419.0
437 478.0 34.0
438 743.0 174.0
439 103.0 136.0
440 369.0 217.0
441 486.0 209.0
442 319.0 723.0
443 632.0 28.0
444 308.0 355.0
445 74.0 83.0
446 720.0 533.0
447 540.0 399.0
448 198.0 96.0
449 40.0 233.0
450 406.0 564.0
451 297.0 540.0
452 410.0 383.0
453 53.0 732.0
454 650.0 322.0
455 254.0 92.0
456 105.0 347.0
457 725.0 411.0
458 52.0 634.0
459 232.0 598.0
460 341.0 41.0
461 20.0 607.0
462 695.0 565.0
463 132.0 268.0
464 59.0 190.0
465 480.0 292.0
466 178.0 467.0
467 446.0 5.0
468 658.0 7.0
469 582.0 654.0
470 716.0 308.0
471 358.0 257.0
472 269.0 293.0
473 435.0 294.0
474 768.0 607.0
475 197.0 89.0
476 109.0 756.0
477 217.0 765.0
478 711.0 100.0
479 638.0 54.0
480 343.0 206.0
481 538.0 337.0
482 297.0 333.0
483 229.0 235.0
484 638.0 599.0
485 138.0 331.0
486 156.0 38.0
487 747.0 719.0
488 421.0 345.0
489 689.0 142.0
490 555.0 579.0
491 5.0 12.0
492 614.0 427.0
493 359.0 23.0
494 562.0 736.0
495 231.0 272.0
496 223.0 302.0
497 37.0 583.0
498 499.0 111.0
499 544.0 407.0
500 5.0 78.0
501 378.0 315.0
502 182.0 649.0
503 632.0 33.0
504 330.0 501.0
505 118.0 445.0
506 641.0 618.0
507 618.0 599.0
508 333.0 473.0
509 704.0 562.0
510 589.0 406.0
511 46.0 430.0
512 114.0 701.0
513 647.0 563.0
514 617.0 438.0
515 747.0 705.0
516 629.0 67.0
517 607.0 206.0
518 348.0 86.0
519 612.0 170.0
520 432.0 727.0
521 334.0 571.0
522 36.0 253.0
523 447.0 255.0
524 168.0 693.0
525 748.0 691.0
526 455.0 119.0
527 44.0 103.0
528 387.0 384.0
529 4.0 290.0
530 461.0 211.0
531 604.0 303.0
532 714.0 359.0
533 115.0 31.0
534 372.0 630.0
535 42.0 53.0
536 602.0 340.0
537 258.0 394.0
538 132.0 111.0
539 677.0 533.0
540 670.0 547.0
541 638.0 508.0
542 3.0 189.0
543 417.0 125.0
544 124.0 49.0
545 138.0 473.0
546 732.0 511.0
547 88.0 713.0
548 308.0 204.0
549 681.0 333.0
550 52.0 457.0
551 446.0 667.0
552 59.0 618.0
553 561.0 420.0
554 618.0 28.0
555 685.0 176.0
556 99.0 183.0
557 366.0 79.0
558 133.0 523.0
559 78.0 15.0
560 45.0 500.0
561 501.0 385.0
562 401.0 428.0
563 403.0 382.0
564 632.0 474.0
565 120.0 78.0
566 697.0 373.0
567 136.0 210.0
568 342.0 484.0
569 369.0 139.0
570 303.0 328.0
571 529.0 428.0
572 220.0 615.0
573 664.0 265.0
574 96.0 363.0
575 205.0 361.0
576 255.0 573.0
577 442.0 24.0
578 770.0 395.0
579 765.0 267.0
580 300.0 403.0
581 749.0 588.0
582 233.0 53.0
583 137.0 371.0
584 740.0 315.0
585 102.0 655.0
586 110.0 444.0
587 252.0 297.0
588 351.0 133.0
589 723.0 396.0
590 199.0 229.0
591 62.0 392.0
592 283.0 192.0
593 502.0 13.0
594 556.0 607.0
595 368.0 319.0
596 614.0 592.0
597 249.0 178.0
598 290.0 274.0
599 407.0 306.0
600 316.0 769.0
601 752.0 321.0
602 548.0 547.0
603 385.0 151.0
604 616.0 465.0
605 239.0 322.0
606 496.0 605.0
607 115.0 514.0
608 301.0 371.0
609 428.0 731.0
610 588.0 762.0
611 287.0 455.0
612 153.0 733.0
613 726.0 200.0
614 448.0 314.0
615 202.0 251.0
616 764.0 419.0
617 421.0 711.0
618 160.0 543.0
619 505.0 598.0
620 309.0 583.0
621 668.0 739.0
622 96.0 597.0
623 108.0 138.0
624 418.0 181.0
625 229.0 636.0
626 88.0 754.0
627 258.0 34.0
628 232.0 17.0
629 397.0 663.0
630 45.0 105.0
631 699.0 733.0
632 548.0 534.0
633 131.0 137.0
634 276.0 379.0
635 348.0 240.0
636 84.0 9.0
637 325.0 618.0
638 228.0 326.0
639 11.0 234.0
640 383.0 434.0
641 155.0 479.0
642 298.0 671.0
643 332.0 609.0
644 438.0 115.0
645 570.0 652.0
646 562.0 397.0
647 517.0 536.0
648 437.0 627.0
649 68.0 206.0
650 290.0 695.0
651 298.0 38.0
652 548.0 333.0
653 337.0 206.0
654 367.0 641.0
655 624.0 542.0
656 179.0 402.0
657 640.0 108.0
658 489.0 36.0
659 448.0 218.0
660 573.0 572.0
661 106.0 335.0
662 70.0 68.0
663 242.0 579.0
664 283.0 442.0
665 54.0 760.0
666 371.0 676.0
667 87.0 643.0
668 178.0 23.0
669 660.0 317.0
670 590.0 271.0
671 251.0 68.0
672 684.0 662.0
673 392.0 357.0
674 745.0 452.0
675 39.0 68.0
676 264.0 606.0
677 455.0 588.0
678 381.0 91.0
679 156.0 387.0
680 415.0 458.0
681 527.0 333.0
682 57.0 396.0
683 564.0 415.0
684 119.0 256.0
685 33.0 288.0
686 180.0 213.0
687 549.0 715.0
688 507.0 26.0
689 34.0 77.0
690 431.0 227.0
691 333.0 598.0
692 500.0 215.0
693 403.0 462.0
694 609.0 605.0
695 325.0 255.0
696 4.0 628.0
697 635.0 407.0
698 665.0 577.0
699 527.0 417.0
700 407.0 754.0
701 76.0 390.0
702 379.0 257.0
703 705.0 747.0
704 317.0 142.0
705 13.0 322.0
706 740.0 499.0
707 629.0 582.0
708 602.0 340.0
709 320.0 79.0
710 231.0 566.0
711 725.0 639.0
712 466.0 421.0
713 38.0 730.0
714 14.0 478.0
715 165.0 235.0
716 680.0 106.0
717 193.0 212.0
718 219.0 211.0
719 54.0 752.0
720 580.0 186.0
721 606.0 492.0
722 194.0 650.0
723 466.0 334.0
724 179.0 563.0
725 170.0 713.0
726 217.0 620.0
727 698.0 438.0
728 206.0 668.0
729 368.0 48.0
730 378.0 246.0
731 557.0 78.0
732 85.0 263.0
733 377.0 513.0
734 508.0 709.0
735 696.0 341.0
736 10.0 702.0
737 598.0 372.0
738 488.0 733.0
739 415.0 682.0
740 653.0 490.0
741 274.0 474.0
742 516.0 298.0
743 434.0 483.0
744 426.0 361.0
745 468.0 292.0
746 198.0 287.0
747 617.0 741.0
748 726.0 541.0
749 478.0 168.0
750 156.0 466.0
751 25.0 742.0
752 712.0 669.0
753 762.0 489.0
754 266.0 584.0
755 89.0 547.0
756 12.0 190.0
757 739.0 120.0
758 696.0 111.0
759 661.0 119.0
760 650.0 471.0
761 581.0 302.0
762 415.0 389.0
763 539.0 249.0
764 507.0 649.0
765 269.0 163.0
766 679.0 482.0
767 69.0 30.0
768 222.0 636.0
769 711.0 675.0
770 307.0 682.0
EOF





